\* Source Pyomo model name=unknown *\

max 
obj:
-20 Lambda
+22804 Y(0)
+15932 Y(1)
+21419 Y(10)
+22287 Y(11)
+24908 Y(12)
+27160 Y(13)
+16648 Y(14)
+31571 Y(15)
+26113 Y(16)
+18250 Y(17)
+16982 Y(18)
+22599 Y(19)
+20329 Y(2)
+29465 Y(3)
+21801 Y(4)
+32694 Y(5)
+32016 Y(6)
+17799 Y(7)
+25006 Y(8)
+32458 Y(9)

s.t.

c_u_C2(1)_:
+9706 Y(0)
+16791 Y(1)
+16617 Y(10)
+9649 Y(11)
+13997 Y(12)
+14180 Y(13)
+10317 Y(14)
+13106 Y(15)
+14531 Y(16)
+13828 Y(17)
+14556 Y(18)
+9084 Y(19)
+12953 Y(2)
+10264 Y(3)
+14240 Y(4)
+13063 Y(5)
+14314 Y(6)
+15599 Y(7)
+15073 Y(8)
+16920 Y(9)
<= 1000000

c_u_C3a(1)_:
+1 Y(0)
+1000000 Y(4)
<= 1000000

c_u_C3b(1)_:
-1000000 Y(1)
+1 Y(4)
<= 0

c_u_C4(1)_:
+1 Y(1)
-1 Y(3)
<= 0

c_u_C5(1)_:
-1 Lambda
-1 Mu(0)
+9706 Y(0)
<= 0

c_u_C5(2)_:
-1 Lambda
-1 Mu(1)
+16791 Y(1)
<= 0

c_u_C5(3)_:
-1 Lambda
-1 Mu(2)
+12953 Y(2)
<= 0

c_u_C5(4)_:
-1 Lambda
-1 Mu(3)
+10264 Y(3)
<= 0

c_u_C5(5)_:
-1 Lambda
-1 Mu(4)
+14240 Y(4)
<= 0

c_u_C5(6)_:
-1 Lambda
-1 Mu(5)
+13063 Y(5)
<= 0

c_u_C5(7)_:
-1 Lambda
-1 Mu(6)
+14314 Y(6)
<= 0

c_u_C5(8)_:
-1 Lambda
-1 Mu(7)
+15599 Y(7)
<= 0

c_u_C5(9)_:
-1 Lambda
-1 Mu(8)
+15073 Y(8)
<= 0

c_u_C5(10)_:
-1 Lambda
-1 Mu(9)
+16920 Y(9)
<= 0

c_u_C5(11)_:
-1 Lambda
-1 Mu(10)
+16617 Y(10)
<= 0

c_u_C5(12)_:
-1 Lambda
-1 Mu(11)
+9649 Y(11)
<= 0

c_u_C5(13)_:
-1 Lambda
-1 Mu(12)
+13997 Y(12)
<= 0

c_u_C5(14)_:
-1 Lambda
-1 Mu(13)
+14180 Y(13)
<= 0

c_u_C5(15)_:
-1 Lambda
-1 Mu(14)
+10317 Y(14)
<= 0

c_u_C5(16)_:
-1 Lambda
-1 Mu(15)
+13106 Y(15)
<= 0

c_u_C5(17)_:
-1 Lambda
-1 Mu(16)
+14531 Y(16)
<= 0

c_u_C5(18)_:
-1 Lambda
-1 Mu(17)
+13828 Y(17)
<= 0

c_u_C5(19)_:
-1 Lambda
-1 Mu(18)
+14556 Y(18)
<= 0

c_u_C5(20)_:
-1 Lambda
-1 Mu(19)
+9084 Y(19)
<= 0

c_l_C6(1)_:
+1 Lambda
>= 0

c_l_C6(2)_:
+1 Lambda
>= 0

c_l_C6(3)_:
+1 Lambda
>= 0

c_l_C6(4)_:
+1 Lambda
>= 0

c_l_C6(5)_:
+1 Lambda
>= 0

c_l_C6(6)_:
+1 Lambda
>= 0

c_l_C6(7)_:
+1 Lambda
>= 0

c_l_C6(8)_:
+1 Lambda
>= 0

c_l_C6(9)_:
+1 Lambda
>= 0

c_l_C6(10)_:
+1 Lambda
>= 0

c_l_C6(11)_:
+1 Lambda
>= 0

c_l_C6(12)_:
+1 Lambda
>= 0

c_l_C6(13)_:
+1 Lambda
>= 0

c_l_C6(14)_:
+1 Lambda
>= 0

c_l_C6(15)_:
+1 Lambda
>= 0

c_l_C6(16)_:
+1 Lambda
>= 0

c_l_C6(17)_:
+1 Lambda
>= 0

c_l_C6(18)_:
+1 Lambda
>= 0

c_l_C6(19)_:
+1 Lambda
>= 0

c_l_C6(20)_:
+1 Lambda
>= 0

c_l_C7(1)_:
+1 Mu(0)
>= 0

c_l_C7(2)_:
+1 Mu(1)
>= 0

c_l_C7(3)_:
+1 Mu(2)
>= 0

c_l_C7(4)_:
+1 Mu(3)
>= 0

c_l_C7(5)_:
+1 Mu(4)
>= 0

c_l_C7(6)_:
+1 Mu(5)
>= 0

c_l_C7(7)_:
+1 Mu(6)
>= 0

c_l_C7(8)_:
+1 Mu(7)
>= 0

c_l_C7(9)_:
+1 Mu(8)
>= 0

c_l_C7(10)_:
+1 Mu(9)
>= 0

c_l_C7(11)_:
+1 Mu(10)
>= 0

c_l_C7(12)_:
+1 Mu(11)
>= 0

c_l_C7(13)_:
+1 Mu(12)
>= 0

c_l_C7(14)_:
+1 Mu(13)
>= 0

c_l_C7(15)_:
+1 Mu(14)
>= 0

c_l_C7(16)_:
+1 Mu(15)
>= 0

c_l_C7(17)_:
+1 Mu(16)
>= 0

c_l_C7(18)_:
+1 Mu(17)
>= 0

c_l_C7(19)_:
+1 Mu(18)
>= 0

c_l_C7(20)_:
+1 Mu(19)
>= 0

c_l_C8(1)_:
+1 Y(0)
>= 0

c_l_C8(2)_:
+1 Y(1)
>= 0

c_l_C8(3)_:
+1 Y(2)
>= 0

c_l_C8(4)_:
+1 Y(3)
>= 0

c_l_C8(5)_:
+1 Y(4)
>= 0

c_l_C8(6)_:
+1 Y(5)
>= 0

c_l_C8(7)_:
+1 Y(6)
>= 0

c_l_C8(8)_:
+1 Y(7)
>= 0

c_l_C8(9)_:
+1 Y(8)
>= 0

c_l_C8(10)_:
+1 Y(9)
>= 0

c_l_C8(11)_:
+1 Y(10)
>= 0

c_l_C8(12)_:
+1 Y(11)
>= 0

c_l_C8(13)_:
+1 Y(12)
>= 0

c_l_C8(14)_:
+1 Y(13)
>= 0

c_l_C8(15)_:
+1 Y(14)
>= 0

c_l_C8(16)_:
+1 Y(15)
>= 0

c_l_C8(17)_:
+1 Y(16)
>= 0

c_l_C8(18)_:
+1 Y(17)
>= 0

c_l_C8(19)_:
+1 Y(18)
>= 0

c_l_C8(20)_:
+1 Y(19)
>= 0

c_e_ONE_VAR_CONSTANT: 
ONE_VAR_CONSTANT = 1.0

bounds
   0 <= Y(0) <= 1
   0 <= Y(1) <= 1
   0 <= Y(2) <= 1
   0 <= Y(3) <= 1
   0 <= Y(4) <= 1
   0 <= Y(5) <= 1
   0 <= Y(6) <= 1
   0 <= Y(7) <= 1
   0 <= Y(8) <= 1
   0 <= Y(9) <= 1
   0 <= Y(10) <= 1
   0 <= Y(11) <= 1
   0 <= Y(12) <= 1
   0 <= Y(13) <= 1
   0 <= Y(14) <= 1
   0 <= Y(15) <= 1
   0 <= Y(16) <= 1
   0 <= Y(17) <= 1
   0 <= Y(18) <= 1
   0 <= Y(19) <= 1
   0 <= Lambda <= +inf
   0 <= Mu(0) <= +inf
   0 <= Mu(1) <= +inf
   0 <= Mu(2) <= +inf
   0 <= Mu(3) <= +inf
   0 <= Mu(4) <= +inf
   0 <= Mu(5) <= +inf
   0 <= Mu(6) <= +inf
   0 <= Mu(7) <= +inf
   0 <= Mu(8) <= +inf
   0 <= Mu(9) <= +inf
   0 <= Mu(10) <= +inf
   0 <= Mu(11) <= +inf
   0 <= Mu(12) <= +inf
   0 <= Mu(13) <= +inf
   0 <= Mu(14) <= +inf
   0 <= Mu(15) <= +inf
   0 <= Mu(16) <= +inf
   0 <= Mu(17) <= +inf
   0 <= Mu(18) <= +inf
   0 <= Mu(19) <= +inf
binary
  Y(0)
  Y(1)
  Y(2)
  Y(3)
  Y(4)
  Y(5)
  Y(6)
  Y(7)
  Y(8)
  Y(9)
  Y(10)
  Y(11)
  Y(12)
  Y(13)
  Y(14)
  Y(15)
  Y(16)
  Y(17)
  Y(18)
  Y(19)
end
